(set-logic HORN)
(declare-fun state (Int (Array Int Int) (Array Int Int) Int Int (Array Int Int) (Array Int Int) Int Int (Array Int Int) (Array Int Int) Int Int Int Int Int Int Int Int Int Int Int Int Int Int Int Int Int Int Int Int Int Int Int Bool Bool Bool Int (Array Int Int) Int Int Int (Array Int Int) Int Int) Bool)
(assert (forall ((|A| Int) (|J1| (Array Int Int)) (|C| (Array Int Int)) (|K1| Int) (|E| Int) (|F| (Array Int Int)) (|G| (Array Int Int)) (|L1| Int) (|I| Int) (|J| (Array Int Int)) (|K| (Array Int Int)) (|M1| Int) (|M| Int) (|N| Int) (|O| Int) (|P| Int) (|Q| Int) (|R| Int) (|S| Int) (|T| Int) (|U| Int) (|V| Int) (|W| Int) (|X| Int) (|Y| Int) (|Z| Int) (|A1| Int) (|B1| Int) (|C1| Int) (|D1| Int) (|E1| Int) (|F1| Int) (|G1| Int) (|H1| Int) (|I1| Bool) (|.loc.3| Bool) (|.loc.4| Bool) (|K1_0| Int) (|J1_0| (Array Int Int)) (|N1_0| Int) (|O1_0| Int) (|L1_2| Int) (|J1_3| (Array Int Int)) (|J1_2| Int) (|P1_0| Int) (|.x.150| Int) (|.x.148| (Array Int Int)) (|.x.146| Int) (|.x.144| (Array Int Int)) (|.x.142| Int) (|.x.138| Int) (|.x.140| (Array Int Int)) (|.loc.5| Bool) (|.loc.6| Bool) (|.x.163| Int) (|.x.153| Int) (|.x.158| Int) (|.x.143| (Array Int Int)) (|.x.167| Int) (|.x.139| (Array Int Int)) (|.x.147| (Array Int Int)) (|.x.169| Int) (|.x.166| Int) (|.x.159| Int) (|.x.152| Int) (|.x.151| Int) (|.x.141| Int) (|.x.154| Int) (|.x.170| Int) (|.x.155| Int) (|.x.156| Int) (|.x.157| Int) (|.x.168| Int) (|.x.161| Int) (|.x.171| Int) (|.x.149| Int) (|.x.145| Int) (|I1_4| Bool) (|.x.160| Int) (|.x.162| Int) (|.x.164| Int) (|.x.165| Int) (|.xtv.1| Int) (|.xtv.2| (Array Int Int)) (|.xtv.3| Int) (|.xtv.4| Int) (|.xtv.5| Int) (|.xtv.6| (Array Int Int)) (|.xtv.7| Int) (|.xtv.8| Int)) (=> (and (and (not .loc.4) (not .loc.3)) (and (and (and (and (and (and (= F G) (not I1)) (= K1 E)) (= L1 I)) (= M1 M)) (= J K)) (= J1 C))) (state |A| |J1| |C| |K1| |E| |F| |G| |L1| |I| |J| |K| |M1| |M| |N| |O| |P| |Q| |R| |S| |T| |U| |V| |W| |X| |Y| |Z| |A1| |B1| |C1| |D1| |E1| |F1| |G1| |H1| |I1| |.loc.3| |.loc.4| |K1_0| |J1_0| |N1_0| |O1_0| |L1_2| |J1_3| |J1_2| |P1_0|))))
(assert (forall ((|A| Int) (|J1| (Array Int Int)) (|C| (Array Int Int)) (|K1| Int) (|E| Int) (|F| (Array Int Int)) (|G| (Array Int Int)) (|L1| Int) (|I| Int) (|J| (Array Int Int)) (|K| (Array Int Int)) (|M1| Int) (|M| Int) (|N| Int) (|O| Int) (|P| Int) (|Q| Int) (|R| Int) (|S| Int) (|T| Int) (|U| Int) (|V| Int) (|W| Int) (|X| Int) (|Y| Int) (|Z| Int) (|A1| Int) (|B1| Int) (|C1| Int) (|D1| Int) (|E1| Int) (|F1| Int) (|G1| Int) (|H1| Int) (|I1| Bool) (|.loc.3| Bool) (|.loc.4| Bool) (|K1_0| Int) (|J1_0| (Array Int Int)) (|N1_0| Int) (|O1_0| Int) (|L1_2| Int) (|J1_3| (Array Int Int)) (|J1_2| Int) (|P1_0| Int) (|.x.150| Int) (|.x.148| (Array Int Int)) (|.x.146| Int) (|.x.144| (Array Int Int)) (|.x.142| Int) (|.x.138| Int) (|.x.140| (Array Int Int)) (|.loc.5| Bool) (|.loc.6| Bool) (|.x.163| Int) (|.x.153| Int) (|.x.158| Int) (|.x.143| (Array Int Int)) (|.x.167| Int) (|.x.139| (Array Int Int)) (|.x.147| (Array Int Int)) (|.x.169| Int) (|.x.166| Int) (|.x.159| Int) (|.x.152| Int) (|.x.151| Int) (|.x.141| Int) (|.x.154| Int) (|.x.170| Int) (|.x.155| Int) (|.x.156| Int) (|.x.157| Int) (|.x.168| Int) (|.x.161| Int) (|.x.171| Int) (|.x.149| Int) (|.x.145| Int) (|I1_4| Bool) (|.x.160| Int) (|.x.162| Int) (|.x.164| Int) (|.x.165| Int) (|.xtv.1| Int) (|.xtv.2| (Array Int Int)) (|.xtv.3| Int) (|.xtv.4| Int) (|.xtv.5| Int) (|.xtv.6| (Array Int Int)) (|.xtv.7| Int) (|.xtv.8| Int)) (=> (and (state |A| |J1| |C| |K1| |E| |F| |G| |L1| |I| |J| |K| |M1| |M| |N| |O| |P| |Q| |R| |S| |T| |U| |V| |W| |X| |Y| |Z| |A1| |B1| |C1| |D1| |E1| |F1| |G1| |H1| |I1| |.loc.3| |.loc.4| |K1_0| |J1_0| |N1_0| |O1_0| |L1_2| |J1_3| |J1_2| |P1_0|) (let ((.def_56 (not .loc.3))) (let ((.def_98 (= J1_2 0))) (let ((.def_117 (and (<= .x.158 2147483647) (<= (- 2147483648) .x.158)))) (let ((.def_122 (store J1_0 .x.163 1))) (let ((.def_157 (= .x.141 0))) (let ((.def_163 (= .x.154 .x.170))) (let ((.def_166 (= .x.166 .x.155))) (let ((.def_169 (= .x.152 .x.156))) (let ((.def_173 (= .x.157 .x.168))) (let ((.def_181 (= .x.158 (ite (and (= .x.161 .x.171) (= .x.154 .x.157)) 1 0)))) (let ((.def_184 (= .x.151 .x.168))) (let ((.def_186 (= .x.155 .x.161))) (let ((.def_188 (= .x.156 .x.171))) (let ((.def_190 (= .x.159 .x.170))) (let ((.def_212 (or I1 (and (= J1_0 (store J1 0 0)) (and (= K1_0 0) (and (= .x.149 0) (= .x.145 0))))))) (let ((.def_216 (= W .x.160))) (let ((.def_253 (= I1 I1_4))) (let ((.def_284 (store J1_0 L1_2 1))) (let ((.def_353 (not .loc.6))) (and (and (not .loc.4) (and (= M .x.150) (and (= K .x.148) (and (= I .x.146) (and (= G .x.144) (and (= E .x.142) (and (= A .x.138) (= C .x.140)))))))) (or (or (and (and (not .loc.5) .loc.6) (or (and .def_56 (and (or I1 (not .def_98)) (and (or I1 (and (= (store F .x.163 (store (select F .x.163) .x.153 .x.158)) .x.143) (and (= J1_2 (select (select .x.143 .x.163) .x.153)) .def_117))) (and (or I1 (and (= (store .def_122 .x.167 1) .x.139) (and (= (store (store J .x.163 4) .x.167 4) .x.147) (and (= (select .def_122 .x.167) 0) (and (= (select J1_0 .x.163) 0) (and (= .x.169 0) (and (= .x.153 0) (and (not (= .x.163 0)) (and (= .x.163 .x.166) (and (not (= .x.167 0)) (and (and (and (and (and (= .x.169 .x.159) (and (and (and (and (and (and (= .x.167 .x.152) (and (= .x.153 .x.151) (and (and (not (<= .x.138 .x.167)) (not (<= .x.138 .x.163))) .def_157))) .def_163) .def_166) .def_169) .def_173) .def_181)) .def_184) .def_186) .def_188) .def_190))))))))))) (and (and .def_212 I1_4) .def_216))))) (and (or I1 (= A1 .x.160)) (and (= J1 .x.139) (and (= K1 .x.141) (and (= F .x.143) (and (= L1 .x.145) (and (= J .x.147) (and (= M1 .x.149) (and (= N .x.151) (and (= O .x.152) (and (= P .x.153) (and (= Q .x.154) (and (= R .x.155) (and (= S .x.156) (and (= T .x.157) (and (= U .x.158) (and (= V .x.159) (and (= X .x.161) (and (= Y .x.162) (and (= Z .x.163) (and (= A1 .x.164) (and (= B1 .x.165) (and (= C1 .x.166) (and (= D1 .x.167) (and (= E1 .x.168) (and (= F1 .x.169) (and (= G1 .x.170) (and (= H1 .x.171) (and .loc.3 .def_253)))))))))))))))))))))))))))))) (and (or I1_4 (and (= J1_3 (store .def_284 O1_0 1)) (and (and (= (select .def_284 O1_0) 0) (and (= (select J1_0 L1_2) 0) (and (= P1_0 0) (and .def_98 (and (not (= L1_2 0)) (and (and (not (= O1_0 0)) (and .def_190 (and .def_188 (and .def_186 (and .def_184 (and (and .def_181 (and .def_173 (and .def_169 (and .def_166 (and .def_163 (and (and (and .def_157 (and (not (<= .x.138 L1_2)) (not (<= .x.138 O1_0)))) (= J1_2 .x.151)) (= O1_0 .x.152))))))) (= P1_0 .x.159))))))) (= L1_2 .x.166))))))) (= .x.147 (store (store J L1_2 4) O1_0 4))))) (and (or I1_4 (and (and .def_117 (= N1_0 (select (select .x.143 L1_2) J1_2))) (= .x.143 (store F L1_2 (store (select F L1_2) J1_2 .x.158))))) (and (or I1_4 (and (= .x.139 (store (store J1_3 L1_2 0) O1_0 0)) (and (= N1_0 0) (= .x.164 0)))) (and (and .def_253 (and .loc.5 (and .def_56 (and .def_212 .def_216)))) .def_353))))) (and .def_353 (and .loc.5 (and .def_56 (and .def_216 (and .def_212 (and I1 I1_4)))))))))))))))))))))))))))) (state |.x.138| |.x.139| |.x.140| |.x.141| |.x.142| |.x.143| |.x.144| |.x.145| |.x.146| |.x.147| |.x.148| |.x.149| |.x.150| |.x.151| |.x.152| |.x.153| |.x.154| |.x.155| |.x.156| |.x.157| |.x.158| |.x.159| |.x.160| |.x.161| |.x.162| |.x.163| |.x.164| |.x.165| |.x.166| |.x.167| |.x.168| |.x.169| |.x.170| |.x.171| |I1_4| |.loc.5| |.loc.6| |.xtv.1| |.xtv.2| |.xtv.3| |.xtv.4| |.xtv.5| |.xtv.6| |.xtv.7| |.xtv.8|))))
(assert (forall ((|A| Int) (|J1| (Array Int Int)) (|C| (Array Int Int)) (|K1| Int) (|E| Int) (|F| (Array Int Int)) (|G| (Array Int Int)) (|L1| Int) (|I| Int) (|J| (Array Int Int)) (|K| (Array Int Int)) (|M1| Int) (|M| Int) (|N| Int) (|O| Int) (|P| Int) (|Q| Int) (|R| Int) (|S| Int) (|T| Int) (|U| Int) (|V| Int) (|W| Int) (|X| Int) (|Y| Int) (|Z| Int) (|A1| Int) (|B1| Int) (|C1| Int) (|D1| Int) (|E1| Int) (|F1| Int) (|G1| Int) (|H1| Int) (|I1| Bool) (|.loc.3| Bool) (|.loc.4| Bool) (|K1_0| Int) (|J1_0| (Array Int Int)) (|N1_0| Int) (|O1_0| Int) (|L1_2| Int) (|J1_3| (Array Int Int)) (|J1_2| Int) (|P1_0| Int) (|.x.150| Int) (|.x.148| (Array Int Int)) (|.x.146| Int) (|.x.144| (Array Int Int)) (|.x.142| Int) (|.x.138| Int) (|.x.140| (Array Int Int)) (|.loc.5| Bool) (|.loc.6| Bool) (|.x.163| Int) (|.x.153| Int) (|.x.158| Int) (|.x.143| (Array Int Int)) (|.x.167| Int) (|.x.139| (Array Int Int)) (|.x.147| (Array Int Int)) (|.x.169| Int) (|.x.166| Int) (|.x.159| Int) (|.x.152| Int) (|.x.151| Int) (|.x.141| Int) (|.x.154| Int) (|.x.170| Int) (|.x.155| Int) (|.x.156| Int) (|.x.157| Int) (|.x.168| Int) (|.x.161| Int) (|.x.171| Int) (|.x.149| Int) (|.x.145| Int) (|I1_4| Bool) (|.x.160| Int) (|.x.162| Int) (|.x.164| Int) (|.x.165| Int) (|.xtv.1| Int) (|.xtv.2| (Array Int Int)) (|.xtv.3| Int) (|.xtv.4| Int) (|.xtv.5| Int) (|.xtv.6| (Array Int Int)) (|.xtv.7| Int) (|.xtv.8| Int)) (=> (state |A| |J1| |C| |K1| |E| |F| |G| |L1| |I| |J| |K| |M1| |M| |N| |O| |P| |Q| |R| |S| |T| |U| |V| |W| |X| |Y| |Z| |A1| |B1| |C1| |D1| |E1| |F1| |G1| |H1| |I1| |.loc.3| |.loc.4| |K1_0| |J1_0| |N1_0| |O1_0| |L1_2| |J1_3| |J1_2| |P1_0|) (not (and I1 (and .loc.4 (not .loc.3)))))))
(check-sat)
